7323426213247635137507,12,1,2,01,1,1,2,01,1,1,2,05,14,1,2,06,14,1,2,014,9,1,2,010,2,1,2,08,3,1,2,011,15,1,2,03,8,1,2,06,4,1,2,015,4,1,2,05,1,1,2,09,12,1,2,013,2,1,2,04,4,1,2,09,15,1,2,09,12,1,2,011,1,1,2,013,10,1,2,09,1,1,2,04,12,1,2,014,13,1,2,012,5,1,2,04,7,1,2,01,8,1,2,01,4,1,2,03,13,1,2,03,13,1,2,07,9,1,2,014,8,1,2,06,8,1,2,09,4,1,2,011,3,1,2,03,11,1,2,014,8,1,2,015,8,1,2,013,5,1,2,010,7,1,2,06,3,1,2,04,12,1,2,010,10,1,2,02,10,1,2,012,5,1,2,012,13,1,2,08,14,1,2,015,15,1,2,05,1,1,2,07,7,1,2,07,9,1,2,0